17	4
9	11	9	14	
0	0	0	0	0	3	2	3	4	
10	2	0	0	0	3	17	17	17	
3	8	0	0	0	3	9	10	13	
1	0	5	0	0	3	5	8	12	
1	0	0	6	0	3	6	7	14	
175	5	0	0	0	2	11	17	
250	0	6	0	0	2	10	17	
100	0	0	6	0	3	9	17	17	
175	0	3	0	0	3	16	17	17	
50	0	0	0	3	2	11	17	
100	0	0	7	0	2	15	17	
50	0	5	0	0	1	17	
1	0	3	0	0	3	17	17	17	
4	0	0	8	0	3	15	16	17	
7	0	0	7	0	2	17	17	
9	2	0	0	0	1	17	
0	0	0	0	0	0	
